10J3M/DAT/10J3MUTL-12.dat
10 3
42.7003 42.7003
4.2786 4.2786
18.3775 18.3775
22.9543 22.9543
43.6278 43.6278
7.208 7.208
8.6616 8.6616
1.2791 1.2791
7.029 7.029
38.2247 38.2247
48.5852