10J3M/SOL/10J3MUTL-12.sol
solution status: optimal solution found
objective value:                              48.5852
x#1#3                                0.11609754498212 	(obj:0)
x#2#1                                               1 	(obj:0)
x#3#1                                               1 	(obj:0)
x#4#1                               0.390314668711309 	(obj:0)
x#4#2                               0.609685331288691 	(obj:0)
x#5#3                                               1 	(obj:0)
x#6#2                                               1 	(obj:0)
x#7#1                                               1 	(obj:0)
x#8#1                                               1 	(obj:0)
x#9#1                                               1 	(obj:0)
x#10#2                              0.716350945854382 	(obj:0)
z                                             48.5852 	(obj:1)
